(set-option :print-success true)
(set-option :produce-models true)
(set-option :produce-unsat-cores true)
(declare-const bnot__8 (_ BitVec 8))
(declare-const bnot__8__result__35 (_ BitVec 8))
(declare-const bnot__8__x__19 (_ BitVec 8))
(declare-const fits_in_64__4 Int)
(declare-const fits_in_64__4__arg__15 Int)
(declare-const fits_in_64__4__result__17 Int)
(declare-const has_type__9 (_ BitVec 1))
(declare-const has_type__9__arg__39 (_ BitVec 8))
(declare-const has_type__9__result__40 (_ BitVec 1))
(declare-const has_type__9__ty__37 Int)
(declare-const lower__10 (_ BitVec 1))
(declare-const lower__10__arg__44 (_ BitVec 1))
(declare-const lower__10__result__42 (_ BitVec 1))
(declare-const orr_not__13 (_ BitVec 1))
(declare-const orr_not__13__a__53 (_ BitVec 1))
(declare-const orr_not__13__b__54 (_ BitVec 1))
(declare-const orr_not__13__result__50 (_ BitVec 1))
(declare-const orr_not__13__ty__52 Int)
(declare-const output_reg__14 (_ BitVec 1))
(declare-const output_reg__14__arg__57 (_ BitVec 1))
(declare-const output_reg__14__result__55 (_ BitVec 1))
(declare-const put_in_reg__12 (_ BitVec 1))
(declare-const put_in_reg__12__arg__49 (_ BitVec 8))
(declare-const put_in_reg__12__result__47 (_ BitVec 1))
(declare-const ty__clif0__1 Int)
(declare-const x__clif1__5 (_ BitVec 8))
(declare-const zero_reg__11 (_ BitVec 1))
(declare-const zero_reg__11__result__45 (_ BitVec 1))
(declare-const fresh0 Int)
(declare-const fresh1 (_ BitVec 8))
(push)
(assert (! (= ty__clif0__1 fresh0) :named assum0))
(assert (! (<= fits_in_64__4__arg__15 fits_in_64__4__arg__15) :named assum1))
(assert (! (= fits_in_64__4__result__17 fits_in_64__4__result__17) :named assum2))
(assert (! (= ty__clif0__1 fits_in_64__4__arg__15) :named assum3))
(assert (! (= fits_in_64__4 fits_in_64__4__result__17) :named assum4))
(assert (! (= x__clif1__5 fresh1) :named assum5))
(assert (! (or (or (or (= 8 8) (= 8 8)) (= 8 8)) (= 8 8)) :named assum6))
(assert (! (= bnot__8__result__35 bnot__8__result__35) :named assum7))
(assert (! (= x__clif1__5 bnot__8__x__19) :named assum8))
(assert (! (= bnot__8 bnot__8__result__35) :named assum9))
(assert (! (= has_type__9__ty__37 has_type__9__ty__37) :named assum10))
(assert (! (= has_type__9__result__40 has_type__9__result__40) :named assum11))
(assert (! (= fits_in_64__4 has_type__9__ty__37) :named assum12))
(assert (! (= bnot__8 has_type__9__arg__39) :named assum13))
(assert (! (= has_type__9 has_type__9__result__40) :named assum14))
(assert (! (= lower__10__result__42 lower__10__result__42) :named assum15))
(assert (! (= has_type__9 lower__10__arg__44) :named assum16))
(assert (! (= lower__10 lower__10__result__42) :named assum17))
(assert (! (= zero_reg__11 zero_reg__11__result__45) :named assum18))
(assert (! (= x__clif1__5 put_in_reg__12__arg__49) :named assum19))
(assert (! (= put_in_reg__12 put_in_reg__12__result__47) :named assum20))
(assert (! (= ty__clif0__1 orr_not__13__ty__52) :named assum21))
(assert (! (= zero_reg__11 orr_not__13__a__53) :named assum22))
(assert (! (= put_in_reg__12 orr_not__13__b__54) :named assum23))
(assert (! (= orr_not__13 orr_not__13__result__50) :named assum24))
(assert (! (= orr_not__13 output_reg__14__arg__57) :named assum25))
(assert (! (= output_reg__14 output_reg__14__result__55) :named assum26))
(check-sat)
(get-value (x__clif1__5))
(assert (not (= x__clif1__5 #x00)))
(check-sat)
(pop)
(assert (not (=> (and (= ty__clif0__1 fresh0) (<= fits_in_64__4__arg__15 fits_in_64__4__arg__15) (= fits_in_64__4__result__17 fits_in_64__4__result__17) (= ty__clif0__1 fits_in_64__4__arg__15) (= fits_in_64__4 fits_in_64__4__result__17) (= x__clif1__5 fresh1) (or (or (or (= 8 8) (= 8 8)) (= 8 8)) (= 8 8)) (= bnot__8__result__35 bnot__8__result__35) (= x__clif1__5 bnot__8__x__19) (= bnot__8 bnot__8__result__35) (= has_type__9__ty__37 has_type__9__ty__37) (= has_type__9__result__40 has_type__9__result__40) (= fits_in_64__4 has_type__9__ty__37) (= bnot__8 has_type__9__arg__39) (= has_type__9 has_type__9__result__40) (= lower__10__result__42 lower__10__result__42) (= has_type__9 lower__10__arg__44) (= lower__10 lower__10__result__42) (= zero_reg__11 zero_reg__11__result__45) (= x__clif1__5 put_in_reg__12__arg__49) (= put_in_reg__12 put_in_reg__12__result__47) (= ty__clif0__1 orr_not__13__ty__52) (= zero_reg__11 orr_not__13__a__53) (= put_in_reg__12 orr_not__13__b__54) (= orr_not__13 orr_not__13__result__50) (= orr_not__13 output_reg__14__arg__57) (= output_reg__14 output_reg__14__result__55)) (and (= ((_ extract 0 0) lower__10) ((_ extract 0 0) output_reg__14)) (and (= zero_reg__11__result__45 zero_reg__11__result__45) (= put_in_reg__12__result__47 put_in_reg__12__result__47) (= orr_not__13__result__50 orr_not__13__result__50) (= output_reg__14__result__55 output_reg__14__result__55))))))
(check-sat)
(get-value (lower__10__arg__44 lower__10__arg__44))
(get-value (orr_not__13__ty__52 orr_not__13__ty__52))
(get-value (x__clif1__5 x__clif1__5))
(get-value (has_type__9__arg__39 has_type__9__arg__39))
(get-value (has_type__9__ty__37 has_type__9__ty__37))
(get-value (orr_not__13__result__50 orr_not__13__result__50))
(get-value (zero_reg__11__result__45 zero_reg__11__result__45))
(get-value (bnot__8__result__35 bnot__8__result__35))
(get-value (zero_reg__11 zero_reg__11))
(get-value (bnot__8__x__19 bnot__8__x__19))
(get-value (output_reg__14 output_reg__14))
(get-value (orr_not__13__a__53 orr_not__13__a__53))
(get-value (output_reg__14__result__55 output_reg__14__result__55))
(get-value (orr_not__13 orr_not__13))
(get-value (fits_in_64__4__result__17 fits_in_64__4__result__17))
(get-value (put_in_reg__12__arg__49 put_in_reg__12__arg__49))
(get-value (orr_not__13__b__54 orr_not__13__b__54))
(get-value (fits_in_64__4 fits_in_64__4))
(get-value (has_type__9 has_type__9))
(get-value (bnot__8 bnot__8))
(get-value (lower__10__result__42 lower__10__result__42))
(get-value (output_reg__14__arg__57 output_reg__14__arg__57))
(get-value (put_in_reg__12__result__47 put_in_reg__12__result__47))
(get-value (has_type__9__result__40 has_type__9__result__40))
(get-value (ty__clif0__1 ty__clif0__1))
(get-value (fits_in_64__4__arg__15 fits_in_64__4__arg__15))
(get-value (put_in_reg__12 put_in_reg__12))
(get-value (lower__10 lower__10))
(get-value (fresh0))
(get-value (fresh1))
(get-value ((= ((_ extract 0 0) lower__10) ((_ extract 0 0) output_reg__14))))
(get-value ((= zero_reg__11__result__45 zero_reg__11__result__45) (= put_in_reg__12__result__47 put_in_reg__12__result__47) (= orr_not__13__result__50 orr_not__13__result__50) (= output_reg__14__result__55 output_reg__14__result__55)))
